NAME: lin105
COMMENT: Local search tour for lin105 (17883.1936128402)
TYPE: TOUR
DIMENSION: 105
TOUR_SECTION: 1 2 6 7 10 11 15 103 21 22 29 30 31 32 40 49 59 56 55 50 48 45 44 47 51 54 57 105 64 62 63 70 69 74 75 81 80 76 73 79 77 72 67 68 71 78 82 83 85 84 86 91 92 96 97 101 102 93 89 90 98 99 100 95 94 88 87 66 65 61 60 39 38 35 34 13 4 5 14 37 42 58 53 52 46 43 41 104 36 33 28 23 20 12 19 24 27 26 25 18 16 17 9 8 3 -1
EOF